0 3837.83
2401 3729.43
4802 3644.15
7203 3571.46
9604 3509.94
12005 3457.7
14406 3414.2
16807 3377.9
19208 3346.23
21609 3317.47
24010 3292.67
26411 3272.47
28812 3255.27
31213 3239.58
33614 3225.14
36015 3212.21
38416 3202.29
40817 3193.2
43218 3184.89
45619 3178.36
48020 3172.67
50421 3167.27
52822 3163.27
55223 3159.55
57624 3156.55
60025 3154.66
62426 3153.29
64827 3152.06
67228 3150.87
69629 3149.82
72030 3149.17
74431 3148.49
76832 3148.13
79233 3147.92
81634 3147.88
84035 3147.83
86436 3147.81
88837 3147.72
91238 3147.7
